proyfinal/src/viki/013/andrea/andrea-localstore/experimentInOfficeAgust.take6/worker_6/ceebfe33-5113-407d-b884-a8b2d9b80a88.als.cnf.out
Reading from standard input... Use '--help' for help.
============================[ Problem Statistics ]=============================
|                                                                             |
|  Number of variables:         87638                                         |
|  Number of clauses:          161767                                         |
|  Parse time:                   0.03 s                                       |
|                                                                             |
============================[ Search Statistics ]==============================
| Conflicts |          ORIGINAL         |          LEARNT          | Progress |
|           |    Vars  Clauses Literals |    Limit  Clauses Lit/Cl |          |
===============================================================================
|       100 |   62705   106364   265729 |    39000      100      7 | 28.450 % |
|       250 |   62686   106320   265639 |    42900      248     27 | 28.472 % |
|       475 |   62686   106320   265639 |    47190      473     42 | 28.472 % |
|       812 |   62664   106158   265256 |    51909      808     57 | 28.497 % |
|      1318 |   62664   106158   265256 |    57100     1314     65 | 28.497 % |
|      2077 |   62664   106158   265256 |    62810     2073     66 | 28.497 % |
|      3216 |   62664   106158   265256 |    69091     3212     59 | 28.497 % |
|      4924 |   62664   106158   265256 |    76000     4920     58 | 28.497 % |
|      7486 |   62664   106158   265256 |    83600     7482     58 | 28.497 % |
|     11330 |   62664   106158   265256 |    91960    11326     58 | 28.497 % |
|     17096 |   62594   105798   264461 |   101156    14342     69 | 28.577 % |
===============================================================================
restarts              : 63
conflicts             : 18360          (7356 /sec)
decisions             : 71597          (0.00 % random) (28687 /sec)
propagations          : 26023471       (10426981 /sec)
conflict literals     : 1321892        (53.32 % deleted)
Memory used           : 27.33 MB
CPU time              : 2.49578 s

INDETERMINATE
